outputs/case_153.model.txt
liability_insurance_subscribed = True
guarantee_insurance_subscribed = True
violate_financial_management_rules = False
agent_or_notary = True
improvement_order_issued = True
guarantee_deposit_amount = 500000
minimum_guarantee_deposit = 500000
bank_approved_by_authority = True
license_revoked = False
correction_completed = False
broker = True
violate_business_management_rules = False
violate_related_regulations = True
apply_agent_broker_regulations = True
corrective_order_issued = True
bank_operate_as_broker = True
relevant_insurance_subscribed = True
improper_inducement_to_cancel_or_loan = False
failure_to_fill_out_prospectus_truthfully = False
illegal_insurance_claims = False
induce_cancellation_or_termination_of_contract = False
broker_prohibited_acts_compliance = True
improper_commission_payment = False
improper_transfer_of_application_documents = False
failure_to_cancel_license_in_time = False
unauthorized_use_of_license = False
false_report_at_license_application = False
conflict_of_interest_or_registration_violation = False
unauthorized_use_of_advertisement = False
approved_by_authority = True
failure_to_report_to_broker_association = False
written_analysis_report_provided = False
fee_disclosure_made = False
fee_charged = False
broker_report_and_fee_disclosure_complied = False
criminal_conviction_for_fraud_or_breach = False
bank_operate_as_agent = False
bank_permission_and_application = True
false_or_incomplete_business_or_financial_reports = False
employ_unqualified_personnel = False
damage_insurance_image = False
unauthorized_delegation_or_operation = False
license_and_guarantee_compliance = True
sale_of_unapproved_foreign_policy_discount_certificates = False
failure_to_reappoint_broker_after_resignation = False
deregistration_notified = False
director_or_supervisor_dismissed = False
director_supervisor_deregistration_done = True
failure_to_confirm_consumer_suitability = False
improper_fee_collection = False
disrupt_financial_order = False
unauthorized_suspension_or_termination_of_business = False
improper_coercion_or_inducement = False
management_rules_defined = True
business_scope_restriction = False
other_necessary_measures_taken = False
director_or_supervisor_dismissed_or_suspended = False
manager_or_staff_dismissed = False
violation_penalties_applicable = True
financial_and_business_management_violation = True
authority_defined_management_rules = True
financial_and_business_management_violation_penalty = True
penalty = False
duty_of_care = False
duty_of_fidelity = False
broker_duties_complied = False
license_issued = True
other_violations_of_rules_or_laws = False
misappropriation_of_funds = False
operate_outside_license_scope = False
conceal_important_contract_info = False
contract_with_unapproved_insurer = False
false_or_misleading_promotion = False
authority_defined_minimum_guarantee_deposit = False
minimum_guarantee_deposit_defined = False